\ Model QCP
\ LP format - for model browsing. Use MPS format to capture full model detail.
Minimize
  z + y
Subject To
 Cut_0: z + [ ] >= 660
 Cut_1: z + [ 5.806451612903226 y ^2 ] >= 898.0645161290322
 Cut_2: z + [ 5.806451612903226 y ^2 ] >= 898.0645161290322
 Cut_3: z + [ 5.806451612903226 y ^2 ] >= 898.0645161290322
 Cut_4: z + [ 5.806451612903226 y ^2 ] >= 898.0645161290322
 Cut_5: z + [ 5.806451612903226 y ^2 ] >= 898.0645161290322
 Cut_6: z + [ 5.806451612903226 y ^2 ] >= 898.0645161290322
 Cut_7: z + [ 5.806451612903226 y ^2 ] >= 898.0645161290322
 Cut_8: z + [ 5.806451612903226 y ^2 ] >= 898.0645161290322
 Cut_9: z + [ 5.806451612903226 y ^2 ] >= 898.0645161290322
Bounds
 z = 660
 y = 6.403124237432849
End
